presolving:
(round 1, fast)       105 del vars, 0 del conss, 0 add conss, 105 chg bounds, 0 chg sides, 0 chg coeffs, 0 upgd conss, 0 impls, 902 clqs
   (0.0s) running MILP presolver
   (0.1s) MILP presolver found nothing
(round 2, exhaustive) 105 del vars, 0 del conss, 0 add conss, 105 chg bounds, 0 chg sides, 0 chg coeffs, 233 upgd conss, 0 impls, 902 clqs
   (0.5s) probing: 1000/6681 (15.0%) - 0 fixings, 0 aggregations, 970 implications, 0 bound changes
   (0.5s) probing: 1001/6681 (15.0%) - 0 fixings, 0 aggregations, 971 implications, 0 bound changes
   (0.5s) probing aborted: 1000/1000 successive useless probings
   (0.5s) symmetry computation started: requiring (bin +, int -, cont +), (fixed: bin -, int +, cont -)
   (0.5s) no symmetry present
presolving (3 rounds: 3 fast, 2 medium, 2 exhaustive):
 105 deleted vars, 0 deleted constraints, 0 added constraints, 105 tightened bounds, 0 added holes, 0 changed sides, 0 changed coefficients
 0 implications, 1873 cliques
presolved problem has 6681 variables (6681 bin, 0 int, 0 impl, 0 cont) and 262 constraints
    233 constraints of type <setppc>
     29 constraints of type <linear>
Presolving Time: 0.49

 time | node  | left  |LP iter|LP it/n|mem/heur|mdpt |vars |cons |rows |cuts |sepa|confs|strbr|  dualbound   | primalbound  |  gap   | compl. 
p 0.6s|     1 |     0 |     0 |     - |  clique|   0 |6681 | 262 | 262 |   0 |  0 |   0 |   0 | 0.000000e+00 | 1.181070e+04 |    Inf | unknown
  0.9s|     1 |     0 |   924 |     - |    57M |   0 |6681 | 284 | 262 |   0 |  0 |  22 |   0 | 1.062279e+04 | 1.181070e+04 |  11.18%| unknown
r 0.9s|     1 |     0 |   924 |     - |shifting|   0 |6681 | 274 | 262 |   0 |  0 |  22 |   0 | 1.062279e+04 | 1.119508e+04 |   5.39%| unknown
  1.0s|     1 |     0 |   961 |     - |    59M |   0 |6681 | 274 | 279 |  17 |  1 |  22 |   0 | 1.062670e+04 | 1.119508e+04 |   5.35%| unknown
  1.1s|     1 |     0 |  1005 |     - |    60M |   0 |6681 | 274 | 296 |  34 |  2 |  22 |   0 | 1.063009e+04 | 1.119508e+04 |   5.32%| unknown
  1.2s|     1 |     0 |  1043 |     - |    61M |   0 |6681 | 274 | 313 |  51 |  3 |  22 |   0 | 1.063065e+04 | 1.119508e+04 |   5.31%| unknown
r 1.2s|     1 |     0 |  1043 |     - |shifting|   0 |6681 | 274 | 313 |  51 |  3 |  22 |   0 | 1.063065e+04 | 1.116814e+04 |   5.06%| unknown
  1.2s|     1 |     0 |  1138 |     - |    62M |   0 |6681 | 274 | 328 |  66 |  4 |  22 |   0 | 1.063213e+04 | 1.116814e+04 |   5.04%| unknown
  1.3s|     1 |     0 |  1219 |     - |    62M |   0 |6681 | 274 | 342 |  80 |  5 |  22 |   0 | 1.063303e+04 | 1.116814e+04 |   5.03%| unknown
r 1.3s|     1 |     0 |  1219 |     - |shifting|   0 |6681 | 274 | 342 |  80 |  5 |  22 |   0 | 1.063303e+04 | 1.101768e+04 |   3.62%| unknown
  1.4s|     1 |     0 |  1271 |     - |    63M |   0 |6681 | 274 | 355 |  93 |  6 |  22 |   0 | 1.063413e+04 | 1.101768e+04 |   3.61%| unknown
  1.5s|     1 |     0 |  1374 |     - |    64M |   0 |6681 | 274 | 373 | 111 |  7 |  22 |   0 | 1.063534e+04 | 1.101768e+04 |   3.60%| unknown
  1.6s|     1 |     0 |  1462 |     - |    64M |   0 |6681 | 274 | 389 | 127 |  8 |  22 |   0 | 1.063617e+04 | 1.101768e+04 |   3.59%| unknown
  1.7s|     1 |     0 |  1529 |     - |    64M |   0 |6681 | 274 | 401 | 139 |  9 |  22 |   0 | 1.063657e+04 | 1.101768e+04 |   3.58%| unknown
  1.8s|     1 |     0 |  1735 |     - |    65M |   0 |6681 | 274 | 417 | 155 | 10 |  22 |   0 | 1.063821e+04 | 1.101768e+04 |   3.57%| unknown
 time | node  | left  |LP iter|LP it/n|mem/heur|mdpt |vars |cons |rows |cuts |sepa|confs|strbr|  dualbound   | primalbound  |  gap   | compl. 
  1.9s|     1 |     0 |  1847 |     - |    66M |   0 |6681 | 274 | 433 | 171 | 11 |  22 |   0 | 1.063894e+04 | 1.101768e+04 |   3.56%| unknown
  2.0s|     1 |     0 |  1907 |     - |    66M |   0 |6681 | 274 | 444 | 182 | 12 |  22 |   0 | 1.063937e+04 | 1.101768e+04 |   3.56%| unknown
  2.1s|     1 |     0 |  2021 |     - |    66M |   0 |6681 | 274 | 459 | 197 | 13 |  22 |   0 | 1.064073e+04 | 1.101768e+04 |   3.54%| unknown
  2.2s|     1 |     0 |  2213 |     - |    66M |   0 |6681 | 273 | 470 | 208 | 14 |  22 |   0 | 1.064245e+04 | 1.101768e+04 |   3.53%| unknown
  2.3s|     1 |     0 |  2321 |     - |    68M |   0 |6681 | 273 | 480 | 218 | 15 |  22 |   0 | 1.064284e+04 | 1.101768e+04 |   3.52%| unknown
  2.4s|     1 |     0 |  2435 |     - |    68M |   0 |6681 | 273 | 495 | 233 | 16 |  22 |   0 | 1.064770e+04 | 1.101768e+04 |   3.47%| unknown
  2.6s|     1 |     0 |  2572 |     - |    69M |   0 |6681 | 273 | 507 | 245 | 17 |  22 |   0 | 1.064809e+04 | 1.101768e+04 |   3.47%| unknown
  2.7s|     1 |     0 |  2652 |     - |    69M |   0 |6681 | 273 | 514 | 252 | 18 |  22 |   0 | 1.064900e+04 | 1.101768e+04 |   3.46%| unknown
  2.8s|     1 |     0 |  2752 |     - |    69M |   0 |6681 | 273 | 519 | 257 | 19 |  22 |   0 | 1.064921e+04 | 1.101768e+04 |   3.46%| unknown
  2.9s|     1 |     0 |  2870 |     - |    69M |   0 |6681 | 273 | 525 | 263 | 20 |  22 |   0 | 1.064931e+04 | 1.101768e+04 |   3.46%| unknown
  3.0s|     1 |     0 |  2949 |     - |    69M |   0 |6681 | 273 | 523 | 275 | 21 |  22 |   0 | 1.065035e+04 | 1.101768e+04 |   3.45%| unknown
  3.1s|     1 |     0 |  3034 |     - |    69M |   0 |6681 | 273 | 530 | 282 | 22 |  22 |   0 | 1.065045e+04 | 1.101768e+04 |   3.45%| unknown
  3.3s|     1 |     0 |  3113 |     - |    69M |   0 |6681 | 273 | 535 | 287 | 23 |  22 |   0 | 1.065056e+04 | 1.101768e+04 |   3.45%| unknown
  3.4s|     1 |     0 |  3172 |     - |    69M |   0 |6681 | 273 | 540 | 292 | 24 |  22 |   0 | 1.065059e+04 | 1.101768e+04 |   3.45%| unknown
  3.5s|     1 |     0 |  3252 |     - |    69M |   0 |6681 | 273 | 548 | 300 | 25 |  22 |   0 | 1.065099e+04 | 1.101768e+04 |   3.44%| unknown
 time | node  | left  |LP iter|LP it/n|mem/heur|mdpt |vars |cons |rows |cuts |sepa|confs|strbr|  dualbound   | primalbound  |  gap   | compl. 
  3.6s|     1 |     0 |  3283 |     - |    70M |   0 |6681 | 273 | 554 | 306 | 26 |  22 |   0 | 1.065102e+04 | 1.101768e+04 |   3.44%| unknown
L 6.6s|     1 |     0 | 11207 |     - |    rens|   0 |6681 | 276 | 554 | 306 | 26 |  25 |   0 | 1.065102e+04 | 1.070313e+04 |   0.49%| unknown
  6.7s|     1 |     0 | 11207 |     - |    72M |   0 |6681 | 276 | 554 | 306 | 26 |  25 |   0 | 1.065102e+04 | 1.070313e+04 |   0.49%| unknown
  6.7s|     1 |     0 | 11207 |     - |    72M |   0 |6681 | 276 | 554 | 306 | 26 |  25 |   0 | 1.065102e+04 | 1.070313e+04 |   0.49%| unknown
  6.8s|     1 |     0 | 11507 |     - |    72M |   0 |6681 | 266 | 561 | 313 | 27 |  25 |   0 | 1.065548e+04 | 1.070313e+04 |   0.45%| unknown
  6.8s|     1 |     0 | 11507 |     - |    72M |   0 |6681 | 266 | 561 | 313 | 27 |  25 |   0 | 1.065548e+04 | 1.070313e+04 |   0.45%| unknown
  6.9s|     1 |     0 | 11572 |     - |    72M |   0 |6681 | 266 | 568 | 320 | 28 |  25 |   0 | 1.065571e+04 | 1.070313e+04 |   0.45%| unknown
  6.9s|     1 |     0 | 11572 |     - |    72M |   0 |6681 | 266 | 568 | 320 | 28 |  25 |   0 | 1.065571e+04 | 1.070313e+04 |   0.45%| unknown
  6.9s|     1 |     0 | 11572 |     - |    72M |   0 |6681 | 264 | 568 | 320 | 28 |  25 |   0 | 1.065571e+04 | 1.070313e+04 |   0.45%| unknown
  7.0s|     1 |     0 | 11794 |     - |    72M |   0 |6681 | 264 | 582 | 334 | 29 |  25 |   0 | 1.065683e+04 | 1.070313e+04 |   0.43%| unknown
  7.0s|     1 |     0 | 11794 |     - |    72M |   0 |6681 | 264 | 582 | 334 | 29 |  25 |   0 | 1.065683e+04 | 1.070313e+04 |   0.43%| unknown
  7.1s|     1 |     0 | 11911 |     - |    72M |   0 |6681 | 264 | 561 | 342 | 30 |  25 |   0 | 1.065715e+04 | 1.070313e+04 |   0.43%| unknown
  8.3s|     1 |     2 | 11911 |     - |    72M |   0 |6681 | 264 | 561 | 342 | 30 |  25 |  29 | 1.065923e+04 | 1.070313e+04 |   0.41%| unknown
(run 1, node 1) restarting after 495 global fixings of integer variables

(restart) converted 170 cuts from the global cut pool into linear constraints

presolving:
(round 1, fast)       495 del vars, 0 del conss, 0 add conss, 0 chg bounds, 9 chg sides, 19 chg coeffs, 0 upgd conss, 0 impls, 1292 clqs
(round 2, exhaustive) 495 del vars, 13 del conss, 0 add conss, 0 chg bounds, 15 chg sides, 19 chg coeffs, 0 upgd conss, 0 impls, 1292 clqs
(round 3, exhaustive) 495 del vars, 13 del conss, 0 add conss, 0 chg bounds, 15 chg sides, 19 chg coeffs, 116 upgd conss, 0 impls, 1292 clqs
(round 4, medium)     495 del vars, 18 del conss, 5 add conss, 0 chg bounds, 15 chg sides, 22 chg coeffs, 116 upgd conss, 0 impls, 2763 clqs
(round 5, exhaustive) 495 del vars, 18 del conss, 5 add conss, 0 chg bounds, 15 chg sides, 57 chg coeffs, 116 upgd conss, 0 impls, 2763 clqs
(round 6, exhaustive) 495 del vars, 18 del conss, 5 add conss, 0 chg bounds, 15 chg sides, 57 chg coeffs, 127 upgd conss, 0 impls, 2763 clqs
(round 7, medium)     495 del vars, 22 del conss, 10 add conss, 0 chg bounds, 15 chg sides, 57 chg coeffs, 127 upgd conss, 0 impls, 2763 clqs
presolving (8 rounds: 8 fast, 7 medium, 5 exhaustive):
 495 deleted vars, 22 deleted constraints, 10 added constraints, 0 tightened bounds, 0 added holes, 15 changed sides, 64 changed coefficients
 0 implications, 2763 cliques
presolved problem has 6186 variables (6186 bin, 0 int, 0 impl, 0 cont) and 422 constraints
    115 constraints of type <knapsack>
    245 constraints of type <setppc>
     59 constraints of type <linear>
      3 constraints of type <logicor>
Presolving Time: 0.65
transformed 6/10 original solutions to the transformed problem space

 time | node  | left  |LP iter|LP it/n|mem/heur|mdpt |vars |cons |rows |cuts |sepa|confs|strbr|  dualbound   | primalbound  |  gap   | compl. 
  8.9s|     1 |     0 | 14723 |     - |    84M |   0 |6186 | 422 | 418 |   0 |  0 |  25 |  29 | 1.065923e+04 | 1.070313e+04 |   0.41%| unknown
  9.1s|     1 |     0 | 15044 |     - |    85M |   0 |6186 | 422 | 428 |  10 |  1 |  25 |  29 | 1.065923e+04 | 1.070313e+04 |   0.41%| unknown
  9.1s|     1 |     0 | 15044 |     - |    85M |   0 |6186 | 422 | 428 |  10 |  1 |  25 |  29 | 1.065923e+04 | 1.070313e+04 |   0.41%| unknown
  9.3s|     1 |     0 | 15250 |     - |    86M |   0 |6186 | 422 | 445 |  27 |  2 |  25 |  29 | 1.065923e+04 | 1.070313e+04 |   0.41%| unknown
  9.3s|     1 |     0 | 15250 |     - |    86M |   0 |6186 | 422 | 445 |  27 |  2 |  25 |  29 | 1.065923e+04 | 1.070313e+04 |   0.41%| unknown
  9.4s|     1 |     0 | 15361 |     - |    86M |   0 |6186 | 422 | 458 |  40 |  3 |  25 |  29 | 1.065923e+04 | 1.070313e+04 |   0.41%| unknown
  9.5s|     1 |     0 | 15554 |     - |    86M |   0 |6186 | 422 | 474 |  56 |  4 |  25 |  29 | 1.065935e+04 | 1.070313e+04 |   0.41%| unknown
  9.6s|     1 |     0 | 15674 |     - |    86M |   0 |6186 | 422 | 486 |  68 |  5 |  25 |  29 | 1.065963e+04 | 1.070313e+04 |   0.41%| unknown
  9.8s|     1 |     0 | 15841 |     - |    86M |   0 |6186 | 422 | 499 |  81 |  6 |  25 |  29 | 1.066009e+04 | 1.070313e+04 |   0.40%| unknown
  9.8s|     1 |     0 | 15841 |     - |    86M |   0 |6186 | 422 | 499 |  81 |  6 |  25 |  29 | 1.066009e+04 | 1.070313e+04 |   0.40%| unknown
  9.9s|     1 |     0 | 15902 |     - |    86M |   0 |6186 | 422 | 511 |  93 |  7 |  25 |  29 | 1.066021e+04 | 1.070313e+04 |   0.40%| unknown
  9.9s|     1 |     0 | 15902 |     - |    86M |   0 |6186 | 421 | 511 |  93 |  7 |  25 |  29 | 1.066021e+04 | 1.070313e+04 |   0.40%| unknown
 10.1s|     1 |     0 | 16055 |     - |    86M |   0 |6186 | 421 | 520 | 102 |  8 |  25 |  29 | 1.066050e+04 | 1.070313e+04 |   0.40%| unknown
 10.2s|     1 |     0 | 16175 |     - |    87M |   0 |6186 | 421 | 532 | 114 |  9 |  25 |  29 | 1.066068e+04 | 1.070313e+04 |   0.40%| unknown
 10.3s|     1 |     0 | 16295 |     - |    87M |   0 |6186 | 420 | 539 | 121 | 10 |  25 |  29 | 1.066076e+04 | 1.070313e+04 |   0.40%| unknown
 time | node  | left  |LP iter|LP it/n|mem/heur|mdpt |vars |cons |rows |cuts |sepa|confs|strbr|  dualbound   | primalbound  |  gap   | compl. 
 10.5s|     1 |     0 | 16404 |     - |    87M |   0 |6186 | 420 | 481 | 130 | 11 |  25 |  29 | 1.066091e+04 | 1.070313e+04 |   0.40%| unknown
 10.6s|     1 |     0 | 16517 |     - |    87M |   0 |6186 | 420 | 488 | 137 | 12 |  25 |  29 | 1.066104e+04 | 1.070313e+04 |   0.39%| unknown
 10.7s|     1 |     0 | 16635 |     - |    87M |   0 |6186 | 420 | 494 | 143 | 13 |  25 |  29 | 1.066127e+04 | 1.070313e+04 |   0.39%| unknown
 10.7s|     1 |     0 | 16635 |     - |    87M |   0 |6186 | 420 | 494 | 143 | 13 |  25 |  29 | 1.066127e+04 | 1.070313e+04 |   0.39%| unknown
 10.9s|     1 |     0 | 16744 |     - |    87M |   0 |6186 | 420 | 504 | 153 | 14 |  25 |  29 | 1.066163e+04 | 1.070313e+04 |   0.39%| unknown
 10.9s|     1 |     0 | 16744 |     - |    87M |   0 |6186 | 420 | 504 | 153 | 14 |  25 |  29 | 1.066163e+04 | 1.070313e+04 |   0.39%| unknown
 12.6s|     1 |     2 | 17393 |     - |    87M |   0 |6186 | 420 | 504 | 153 | 14 |  25 |  52 | 1.066201e+04 | 1.070313e+04 |   0.39%| unknown
 44.8s|   100 |    73 | 27605 | 188.2 |   104M |  21 |6186 | 463 | 435 | 535 |  2 |  68 |1075 | 1.066201e+04 | 1.070313e+04 |   0.39%|   3.31%
 59.0s|   200 |   157 | 49688 | 204.5 |   106M |  33 |6186 | 525 | 409 | 749 |  2 | 130 |1540 | 1.066405e+04 | 1.070313e+04 |   0.37%|   6.50%
 63.9s|   300 |   227 | 58105 | 164.4 |   109M |  33 |6186 | 546 | 425 | 950 |  2 | 151 |1598 | 1.066405e+04 | 1.070313e+04 |   0.37%|   8.01%
 67.4s|   400 |   305 | 65006 | 140.5 |   111M |  33 |6186 | 552 | 427 |1098 |  2 | 161 |1626 | 1.066405e+04 | 1.070313e+04 |   0.37%|   8.02%
 70.0s|   500 |   389 | 71060 | 124.5 |   113M |  33 |6186 | 572 | 431 |1203 |  2 | 188 |1644 | 1.066802e+04 | 1.070313e+04 |   0.33%|  27.28%
 72.7s|   600 |   441 | 76404 | 112.7 |   115M |  36 |6186 | 570 | 420 |1391 |  2 | 191 |1659 | 1.066802e+04 | 1.070313e+04 |   0.33%|  27.30%
 76.2s|   700 |   517 | 85170 | 109.1 |   116M |  37 |6186 | 571 | 382 |1495 |  0 | 198 |1692 | 1.066933e+04 | 1.070313e+04 |   0.32%|  34.69%
d78.6s|   745 |    48 | 90336 | 109.5 |pscostdi|  37 |6186 | 580 | 410 |   0 |  1 | 210 |1720 | 1.067323e+04 | 1.069249e+04 |   0.18%|  45.77%
 time | node  | left  |LP iter|LP it/n|mem/heur|mdpt |vars |cons |rows |cuts |sepa|confs|strbr|  dualbound   | primalbound  |  gap   | compl. 
 79.8s|   800 |    85 | 93324 | 105.7 |   118M |  37 |6186 | 625 | 410 |1598 |  2 | 262 |1727 | 1.068447e+04 | 1.069249e+04 |   0.08%|  63.55%
 81.0s|   900 |   115 | 96356 |  97.3 |   119M |  40 |6186 | 645 | 411 |1619 |  2 | 289 |1732 | 1.068517e+04 | 1.069249e+04 |   0.07%|  66.79%
*81.5s|   939 |    63 | 97663 |  94.6 |    LP  |  40 |6186 | 644 | 410 |1626 |  2 | 289 |1734 | 1.068517e+04 | 1.069149e+04 |   0.06%|  67.11%
*82.2s|   994 |    21 | 99055 |  90.8 |    LP  |  40 |6186 | 649 | 410 |1631 |  1 | 297 |1738 | 1.068928e+04 | 1.069049e+04 |   0.01%|  79.89%
 82.3s|  1000 |    21 | 99196 |  90.4 |   120M |  40 |6186 | 649 | 409 |1631 |  0 | 297 |1738 | 1.068928e+04 | 1.069049e+04 |   0.01%|  80.48%
 83.6s|  1100 |    11 |101163 |  84.0 |   121M |  40 |6186 | 667 | 418 |1649 |  0 | 325 |1740 | 1.068930e+04 | 1.069049e+04 |   0.01%|  86.09%
 84.9s|  1200 |    15 |103155 |  78.6 |   121M |  40 |6186 | 673 | 419 |1683 |  0 | 335 |1744 | 1.068941e+04 | 1.069049e+04 |   0.01%|  89.01%
 85.7s|  1300 |    29 |104745 |  73.8 |   122M |  40 |6186 | 693 | 421 |1701 |  0 | 359 |1748 | 1.068945e+04 | 1.069049e+04 |   0.01%|  89.07%
L86.3s|  1313 |    32 |105094 |  73.3 |    rins|  40 |6186 | 691 | 420 |1701 |  2 | 359 |1750 | 1.068947e+04 | 1.069049e+04 |   0.01%|  89.22%
 87.9s|  1400 |    33 |106799 |  70.0 |   123M |  40 |6186 | 682 | 417 |1714 |  0 | 359 |1750 | 1.068959e+04 | 1.069049e+04 |   0.01%|  91.24%
 89.1s|  1500 |    19 |108573 |  66.5 |   123M |  40 |6186 | 699 | 417 |1740 |  0 | 384 |1752 | 1.068971e+04 | 1.069049e+04 |   0.01%|  95.48%

SCIP Status        : problem is solved [optimal solution found]
Solving Time (sec) : 90.29
Solving Nodes      : 1581 (total of 1582 nodes in 2 runs)
Primal Bound       : +1.06904856449304e+04 (98 solutions)
Dual Bound         : +1.06904856449304e+04
Gap                : 0.00 %
Solve Status: optimal
Solve Time: 90.29 seconds
